10J3M/DAT/10J3MULA-5.dat
10 3
35.0822 1230.7608
43.3372 1878.1129
32.0311 1025.9914
16.0431 257.3811
43.945 1931.163
40.9472 1676.6732
26.6294 709.1249
13.0489 170.2738
15.0544 226.635
36.9034 1361.8609
3489.3257