10J3M/SOL/10J3MULA-5.sol
solution status: optimal solution found
objective value:                             101.0073
x#1#1                                               1 	(obj:0)
x#2#2                                0.69402977831678 	(obj:0)
x#2#3                                0.30597022168322 	(obj:0)
x#3#1                                               1 	(obj:0)
x#4#3                                               1 	(obj:0)
x#5#3                                               1 	(obj:0)
x#6#2                                               1 	(obj:0)
x#7#3                                               1 	(obj:0)
x#8#1                              0.0585669027631888 	(obj:0)
x#8#2                               0.941433097236811 	(obj:0)
x#9#2                                0.92494504537743 	(obj:0)
x#9#3                              0.0750549546225695 	(obj:0)
x#10#1                              0.897742927278609 	(obj:0)
x#10#2                              0.102257072721391 	(obj:0)
z                                            101.0073 	(obj:1)
